# LAMMPS data file via write_data, version 27 Jun 2024, timestep = 4000000, units = real



#--------------------------------------------------Force Field--------------------------------------------------
bond_style           class2
angle_style          class2
dihedral_style       class2
improper_style       
special_bonds        lj/coul 0 0 1           # PLEASE CHECK I AM CORRECT

pair_style           lj/class2/coul/long 12.0
kspace_style         pppm 1.0e-4
pair_modify          mix sixthpower

neighbor             2.0 bin
neigh_modify         delay 0 every 1 check yes one 10000 page 1000000


#--------------------------------------------------Pair Coeffs--------------------------------------------------
pair_coeff  1         0.0620000000    3.9320000000 
pair_coeff  2         0.0000100000    0.0000100000 


#--------------------------------------------------Bond Coeffs--------------------------------------------------
bond_coeff  1         1.4200000000   480     0     0 
bond_coeff  2         0.6500000000   250     0     0 


#--------------------------------------------------Angle Coeffs--------------------------------------------------
angle_coeff  1        120    90     0     0 
angle_coeff  2         90    50     0     0 
angle_coeff  3        180    50     0     0 


#--------------------------------------------------Dihedral Coeffs--------------------------------------------------
dihedral_coeff  1          0     0     0     0     0     0 


#--------------------------------------------------BondBond Coeffs--------------------------------------------------
angle_coeff  1    bb         0    1.4200000000    1.4200000000 
angle_coeff  2    bb         0    0.6500000000    1.4200000000 
angle_coeff  3    bb         0    0.6500000000    0.6500000000 


#--------------------------------------------------BondAngle Coeffs--------------------------------------------------
angle_coeff  1    ba         0     0    1.4200000000    1.4200000000 
angle_coeff  2    ba         0     0    0.6500000000    1.4200000000 
angle_coeff  3    ba         0     0    0.6500000000    0.6500000000 


#--------------------------------------------------AngleAngleTorsion Coeffs--------------------------------------------------
dihedral_coeff  1    aat        0   120   120 


#--------------------------------------------------EndBondTorsion Coeffs--------------------------------------------------
dihedral_coeff  1    ebt        0     0     0     0     0     0    1.4200000000    1.4200000000 


#--------------------------------------------------MiddleBondTorsion Coeffs--------------------------------------------------
dihedral_coeff  1    mbt        0     0     0    1.4200000000 


#--------------------------------------------------BondBond13 Coeffs--------------------------------------------------
dihedral_coeff  1   bb13        0    1.4200000000    1.4200000000 


#--------------------------------------------------AngleTorsion Coeffs--------------------------------------------------
dihedral_coeff  1    at         0     0     0     0     0     0   120   120 
