# HEADER,  detda.mol  read w/ mol2lmp > atom_typing v1.4 / 2 May 2023 w/PCFF-IFF atom-types > all2lmp: v1.11 / 11 October 2023  Class: 2 > auto_morse_bond version: v1.12 / 14 April 2025



#--------------------------------------------------Force Field--------------------------------------------------
bond_style           hybrid class2 morse
angle_style          class2
dihedral_style       class2
improper_style       class2
special_bonds        lj/coul 0 0 1           # PLEASE CHECK I AM CORRECT

pair_style           lj/class2/coul/long 12.0
kspace_style         pppm 1.0e-4
pair_modify          mix sixthpower

neighbor             2.0 bin
neigh_modify         delay 0 every 1 check yes one 10000 page 1000000


#--------------------------------------------------Pair Coeffs--------------------------------------------------
pair_coeff  1         0.0540000000    4.0100000000 # c2
pair_coeff  2         0.0540000000    3.9000000000 # c3
pair_coeff  3         0.0640000000    4.0100000000 # cp
pair_coeff  4         0.0130000000    1.6500000000 # hn2
pair_coeff  5         0.0200000000    2.3000000000 # hpan
pair_coeff  6         0.0650000000    4.0700000000 # nn


#--------------------------------------------------Bond Coeffs--------------------------------------------------
bond_coeff  1     morse      82.6961000000    2.0000000000    1.5300000000 # c2          c3
bond_coeff  2     morse      82.6961000000    2.0000000000    1.5010000000 # c2          cp
bond_coeff  3     class2      1.1010000000  345.0000000000 -691.8900000000  844.6000000000 # c2        hpan
bond_coeff  4     morse      82.6961000000    2.0000000000    1.5010000000                 # c3          cp
bond_coeff  5     class2      1.1010000000  345.0000000000 -691.8900000000  844.6000000000 # c3        hpan
bond_coeff  6     morse     150.0000000000    1.9000000000    1.4170000000                 # cp          cp
bond_coeff  7     class2      1.0982000000  372.8251000000 -803.4526000000  894.3173000000 # cp        hpan
bond_coeff  8     morse     110.0001000000    2.1000000000    1.3912000000                 # cp          nn
bond_coeff  9     class2      1.0260000000  457.4592000000    0.0000000000    0.0000000000 # hn2         nn


#--------------------------------------------------Angle Coeffs--------------------------------------------------
angle_coeff  1       110.7700000000   41.4530000000  -10.6040000000    5.1290000000 # c2         c3       hpan
angle_coeff  2       120.0500000000   44.7148000000  -22.7352000000    0.0000000000 # c2         cp         cp
angle_coeff  3       108.4000000000   43.9594000000   -8.3924000000   -9.3379000000 # c3         c2         cp
angle_coeff  4       110.7700000000   41.4530000000  -10.6040000000    5.1290000000 # c3         c2       hpan
angle_coeff  5       120.0500000000   44.7148000000  -22.7352000000    0.0000000000 # c3         cp         cp
angle_coeff  6       111.0000000000   44.3234000000   -9.4454000000    0.0000000000 # cp         c2       hpan
angle_coeff  7       111.0000000000   44.3234000000   -9.4454000000    0.0000000000 # cp         c3       hpan
angle_coeff  8       118.9000000000   61.0226000000  -34.9931000000    0.0000000000 # cp         cp         cp
angle_coeff  9       117.9400000000   35.1558000000  -12.4682000000    0.0000000000 # cp         cp       hpan
angle_coeff  10      121.4584000000   61.0647000000  -21.6172000000    0.0000000000 # cp         cp         nn
angle_coeff  11      122.0000000000   35.0000000000    0.0000000000    0.0000000000 # cp         nn        hn2
angle_coeff  12      122.0000000000   35.0000000000    0.0000000000    0.0000000000 # hn2        nn        hn2
angle_coeff  13      107.6600000000   39.6410000000  -12.9210000000   -2.4318000000 # hpan       c2       hpan
angle_coeff  14      107.6600000000   39.6410000000  -12.9210000000   -2.4318000000 # hpan       c3       hpan


#--------------------------------------------------Dihedral Coeffs--------------------------------------------------
dihedral_coeff  1        -0.0228000000    0.0000000000    0.0280000000    0.0000000000   -0.1863000000    0.0000000000 # cp         c2        c3       hpan
dihedral_coeff  2        -0.1432000000    0.0000000000    0.0617000000    0.0000000000   -0.1083000000    0.0000000000 # hpan       c2        c3       hpan
dihedral_coeff  3        -0.2802000000    0.0000000000   -0.0678000000    0.0000000000   -0.0122000000    0.0000000000 # c3         c2        cp         cp
dihedral_coeff  4        -0.2801000000    0.0000000000   -0.0678000000    0.0000000000   -0.0122000000    0.0000000000 # hpan       c2        cp         cp
dihedral_coeff  5        -0.2801000000    0.0000000000   -0.0678000000    0.0000000000   -0.0122000000    0.0000000000 # hpan       c3        cp         cp
dihedral_coeff  6         0.0000000000    0.0000000000    4.4072000000    0.0000000000    0.0000000000    0.0000000000 # c3         cp        cp         cp
dihedral_coeff  7         0.0000000000    0.0000000000    4.4072000000    0.0000000000    0.0000000000    0.0000000000 # c2         cp        cp         cp
dihedral_coeff  8         8.3667000000    0.0000000000    1.1932000000    0.0000000000    0.0000000000    0.0000000000 # cp         cp        cp         cp
dihedral_coeff  9         0.0000000000    0.0000000000    1.5590000000    0.0000000000    0.0000000000    0.0000000000 # c2         cp        cp       hpan
dihedral_coeff  10        0.0000000000    0.0000000000    3.9661000000    0.0000000000    0.0000000000    0.0000000000 # cp         cp        cp       hpan
dihedral_coeff  11        0.0000000000    0.0000000000    3.0000000000    0.0000000000    0.0000000000    0.0000000000 # c3         cp        cp         nn
dihedral_coeff  12        0.0000000000    0.0000000000    3.0000000000    0.0000000000    0.0000000000    0.0000000000 # c2         cp        cp         nn
dihedral_coeff  13        0.0000000000    0.0000000000    5.3826000000    0.0000000000    0.0000000000    0.0000000000 # cp         cp        cp         nn
dihedral_coeff  14        0.0000000000    0.0000000000    2.2500000000    0.0000000000    0.0000000000    0.0000000000 # cp         cp        nn        hn2


#--------------------------------------------------Improper Coeffs--------------------------------------------------
improper_coeff  1         7.8153000000    0.0000000000 # c2         cp        cp        cp      nb==3
improper_coeff  2         7.8153000000    0.0000000000 # c3         cp        cp        cp      nb==3
improper_coeff  3         4.8912000000    0.0000000000 # cp         cp        cp       hpan     nb==3
improper_coeff  4        10.7855000000    0.0000000000 # cp         cp        cp        nn      nb==3
improper_coeff  5         0.1000000000    0.0000000000 # cp         nn       hn2       hn2      nb==3
improper_coeff  6         0.0000000000    0.0000000000 # c2         c3       hpan      hpan     nb!=3
improper_coeff  7         0.0000000000    0.0000000000 # c3         c2        cp       hpan     nb!=3
improper_coeff  8         0.0000000000    0.0000000000 # c3         c2       hpan      hpan     nb!=3
improper_coeff  9         0.0000000000    0.0000000000 # cp         c2       hpan      hpan     nb!=3
improper_coeff  10        0.0000000000    0.0000000000 # cp         c3       hpan      hpan     nb!=3
improper_coeff  11        0.0000000000    0.0000000000 # hpan       c3       hpan      hpan     nb!=3


#--------------------------------------------------BondBond Coeffs--------------------------------------------------
angle_coeff  1    bb        3.3872000000    1.5300000000    1.1010000000 # c2         c3       hpan
angle_coeff  2    bb       12.0676000000    1.5010000000    1.4170000000 # c2         cp         cp
angle_coeff  3    bb        0.0000000000    1.5300000000    1.5010000000 # c3         c2         cp
angle_coeff  4    bb        3.3872000000    1.5300000000    1.1010000000 # c3         c2       hpan
angle_coeff  5    bb       12.0676000000    1.5010000000    1.4170000000 # c3         cp         cp
angle_coeff  6    bb        2.9168000000    1.5010000000    1.1010000000 # cp         c2       hpan
angle_coeff  7    bb        2.9168000000    1.5010000000    1.1010000000 # cp         c3       hpan
angle_coeff  8    bb       68.2856000000    1.4170000000    1.4170000000 # cp         cp         cp
angle_coeff  9    bb        1.0795000000    1.4170000000    1.0982000000 # cp         cp       hpan
angle_coeff  10   bb       46.9513000000    1.4170000000    1.3912000000 # cp         cp         nn
angle_coeff  11   bb        0.0000000000    1.3912000000    1.0260000000 # cp         nn        hn2
angle_coeff  12   bb        0.0000000000    1.0260000000    1.0260000000 # hn2        nn        hn2
angle_coeff  13   bb        5.3316000000    1.1010000000    1.1010000000 # hpan       c2       hpan
angle_coeff  14   bb        5.3316000000    1.1010000000    1.1010000000 # hpan       c3       hpan


#--------------------------------------------------BondAngle Coeffs--------------------------------------------------
angle_coeff  1    ba       20.7540000000   11.4210000000    1.5300000000    1.1010000000 # c2         c3       hpan
angle_coeff  2    ba       47.0579000000   31.0771000000    1.5010000000    1.4170000000 # c2         cp         cp
angle_coeff  3    ba        0.0000000000    0.0000000000    1.5300000000    1.5010000000 # c3         c2         cp
angle_coeff  4    ba       20.7540000000   11.4210000000    1.5300000000    1.1010000000 # c3         c2       hpan
angle_coeff  5    ba       47.0579000000   31.0771000000    1.5010000000    1.4170000000 # c3         cp         cp
angle_coeff  6    ba       26.4608000000   11.7717000000    1.5010000000    1.1010000000 # cp         c2       hpan
angle_coeff  7    ba       26.4608000000   11.7717000000    1.5010000000    1.1010000000 # cp         c3       hpan
angle_coeff  8    ba       28.8708000000   28.8708000000    1.4170000000    1.4170000000 # cp         cp         cp
angle_coeff  9    ba       20.0033000000   24.2183000000    1.4170000000    1.0982000000 # cp         cp       hpan
angle_coeff  10   ba       39.4040000000   73.6548000000    1.4170000000    1.3912000000 # cp         cp         nn
angle_coeff  11   ba        0.0000000000    0.0000000000    1.3912000000    1.0260000000 # cp         nn        hn2
angle_coeff  12   ba        0.0000000000    0.0000000000    1.0260000000    1.0260000000 # hn2        nn        hn2
angle_coeff  13   ba       18.1030000000   18.1030000000    1.1010000000    1.1010000000 # hpan       c2       hpan
angle_coeff  14   ba       18.1030000000   18.1030000000    1.1010000000    1.1010000000 # hpan       c3       hpan


#--------------------------------------------------AngleAngleTorsion Coeffs--------------------------------------------------
dihedral_coeff  1    aat       0.0000000000  108.4000000000  110.7700000000 # cp         c2        c3       hpan
dihedral_coeff  2    aat     -12.5640000000  110.7700000000  110.7700000000 # hpan       c2        c3       hpan
dihedral_coeff  3    aat       0.0000000000  108.4000000000  120.0500000000 # c3         c2        cp         cp
dihedral_coeff  4    aat      -5.8888000000  111.0000000000  120.0500000000 # hpan       c2        cp         cp
dihedral_coeff  5    aat      -5.8888000000  111.0000000000  120.0500000000 # hpan       c3        cp         cp
dihedral_coeff  6    aat     -14.4097000000  120.0500000000  118.9000000000 # c3         cp        cp         cp
dihedral_coeff  7    aat     -14.4097000000  120.0500000000  118.9000000000 # c2         cp        cp         cp
dihedral_coeff  8    aat       0.0000000000  118.9000000000  118.9000000000 # cp         cp        cp         cp
dihedral_coeff  9    aat       4.4444000000  120.0500000000  117.9400000000 # c2         cp        cp       hpan
dihedral_coeff  10   aat      -4.8141000000  118.9000000000  117.9400000000 # cp         cp        cp       hpan
dihedral_coeff  11   aat       0.0000000000  120.0500000000  121.4584000000 # c3         cp        cp         nn
dihedral_coeff  12   aat       0.0000000000  120.0500000000  121.4584000000 # c2         cp        cp         nn
dihedral_coeff  13   aat       0.0000000000  118.9000000000  121.4584000000 # cp         cp        cp         nn
dihedral_coeff  14   aat       0.0000000000  121.4584000000  122.0000000000 # cp         cp        nn        hn2


#--------------------------------------------------EndBondTorsion Coeffs--------------------------------------------------
dihedral_coeff  1    ebt       0.0000000000    0.0000000000    0.0000000000    0.0000000000    0.0000000000    0.0000000000    1.5010000000    1.1010000000 # cp         c2        c3       hpan
dihedral_coeff  2    ebt       0.2130000000    0.3120000000    0.0777000000    0.2130000000    0.3120000000    0.0777000000    1.1010000000    1.1010000000 # hpan       c2        c3       hpan
dihedral_coeff  3    ebt       0.0000000000    0.0000000000    0.0000000000    0.0000000000    0.0000000000    0.0000000000    1.5300000000    1.4170000000 # c3         c2        cp         cp
dihedral_coeff  4    ebt       1.3997000000    0.7756000000    0.0000000000   -0.5835000000    1.1220000000    0.3978000000    1.1010000000    1.4170000000 # hpan       c2        cp         cp
dihedral_coeff  5    ebt       1.3997000000    0.7756000000    0.0000000000   -0.5835000000    1.1220000000    0.3978000000    1.1010000000    1.4170000000 # hpan       c3        cp         cp
dihedral_coeff  6    ebt       0.0000000000    0.2421000000    0.0000000000    0.0000000000   -0.6918000000    0.0000000000    1.5010000000    1.4170000000 # c3         cp        cp         cp
dihedral_coeff  7    ebt       0.0000000000    0.2421000000    0.0000000000    0.0000000000   -0.6918000000    0.0000000000    1.5010000000    1.4170000000 # c2         cp        cp         cp
dihedral_coeff  8    ebt      -0.1185000000    6.3204000000    0.0000000000   -0.1185000000    6.3204000000    0.0000000000    1.4170000000    1.4170000000 # cp         cp        cp         cp
dihedral_coeff  9    ebt       0.0000000000   -1.7970000000    0.0000000000    0.0000000000   -0.4879000000    0.0000000000    1.5010000000    1.0982000000 # c2         cp        cp       hpan
dihedral_coeff  10   ebt       0.0000000000   -6.8958000000    0.0000000000    0.0000000000   -0.4669000000    0.0000000000    1.4170000000    1.0982000000 # cp         cp        cp       hpan
dihedral_coeff  11   ebt       0.0000000000    0.0000000000    0.0000000000    0.0000000000    0.0000000000    0.0000000000    1.5010000000    1.3912000000 # c3         cp        cp         nn
dihedral_coeff  12   ebt       0.0000000000    0.0000000000    0.0000000000    0.0000000000    0.0000000000    0.0000000000    1.5010000000    1.3912000000 # c2         cp        cp         nn
dihedral_coeff  13   ebt       0.0000000000   -6.5404000000    0.0000000000    0.0000000000   -7.3477000000    0.0000000000    1.4170000000    1.3912000000 # cp         cp        cp         nn
dihedral_coeff  14   ebt       0.0000000000    0.0000000000    0.0000000000    0.0000000000    0.0000000000    0.0000000000    1.4170000000    1.0260000000 # cp         cp        nn        hn2


#--------------------------------------------------MiddleBondTorsion Coeffs--------------------------------------------------
dihedral_coeff  1    mbt       0.0000000000    0.0000000000    0.0000000000    1.5300000000 # cp         c2        c3       hpan
dihedral_coeff  2    mbt     -14.2610000000   -0.5322000000   -0.4864000000    1.5300000000 # hpan       c2        c3       hpan
dihedral_coeff  3    mbt       0.0000000000    0.0000000000    0.0000000000    1.5010000000 # c3         c2        cp         cp
dihedral_coeff  4    mbt      -5.5679000000    1.4083000000    0.3010000000    1.5010000000 # hpan       c2        cp         cp
dihedral_coeff  5    mbt      -5.5679000000    1.4083000000    0.3010000000    1.5010000000 # hpan       c3        cp         cp
dihedral_coeff  6    mbt       0.0000000000    9.1792000000    0.0000000000    1.4170000000 # c3         cp        cp         cp
dihedral_coeff  7    mbt       0.0000000000    9.1792000000    0.0000000000    1.4170000000 # c2         cp        cp         cp
dihedral_coeff  8    mbt      27.5989000000   -2.3120000000    0.0000000000    1.4170000000 # cp         cp        cp         cp
dihedral_coeff  9    mbt       0.0000000000    3.9421000000    0.0000000000    1.4170000000 # c2         cp        cp       hpan
dihedral_coeff  10   mbt       0.0000000000   -1.1521000000    0.0000000000    1.4170000000 # cp         cp        cp       hpan
dihedral_coeff  11   mbt       0.0000000000    0.0000000000    0.0000000000    1.4170000000 # c3         cp        cp         nn
dihedral_coeff  12   mbt       0.0000000000    0.0000000000    0.0000000000    1.4170000000 # c2         cp        cp         nn
dihedral_coeff  13   mbt       0.0000000000   -0.5693000000    0.0000000000    1.4170000000 # cp         cp        cp         nn
dihedral_coeff  14   mbt       0.0000000000    0.0000000000    0.0000000000    1.3912000000 # cp         cp        nn        hn2


#--------------------------------------------------BondBond13 Coeffs--------------------------------------------------
dihedral_coeff  1   bb13       0.0000000000    1.5010000000    1.1010000000 # cp         c2        c3       hpan
dihedral_coeff  2   bb13       0.0000000000    1.1010000000    1.1010000000 # hpan       c2        c3       hpan
dihedral_coeff  3   bb13       0.0000000000    1.5300000000    1.4170000000 # c3         c2        cp         cp
dihedral_coeff  4   bb13      -3.4826000000    1.1010000000    1.4170000000 # hpan       c2        cp         cp
dihedral_coeff  5   bb13      -3.4826000000    1.1010000000    1.4170000000 # hpan       c3        cp         cp
dihedral_coeff  6   bb13       2.5085000000    1.5010000000    1.4170000000 # c3         cp        cp         cp
dihedral_coeff  7   bb13       2.5085000000    1.5010000000    1.4170000000 # c2         cp        cp         cp
dihedral_coeff  8   bb13      53.0000000000    1.4170000000    1.4170000000 # cp         cp        cp         cp
dihedral_coeff  9   bb13       0.8743000000    1.5010000000    1.0982000000 # c2         cp        cp       hpan
dihedral_coeff  10  bb13      -6.2741000000    1.4170000000    1.0982000000 # cp         cp        cp       hpan
dihedral_coeff  11  bb13       0.0000000000    1.5010000000    1.3912000000 # c3         cp        cp         nn
dihedral_coeff  12  bb13       0.0000000000    1.5010000000    1.3912000000 # c2         cp        cp         nn
dihedral_coeff  13  bb13      -9.7999000000    1.4170000000    1.3912000000 # cp         cp        cp         nn
dihedral_coeff  14  bb13       0.0000000000    1.4170000000    1.0260000000 # cp         cp        nn        hn2


#--------------------------------------------------AngleTorsion Coeffs--------------------------------------------------
dihedral_coeff  1    at        0.0000000000    0.0000000000    0.0000000000    0.0000000000    0.0000000000    0.0000000000  108.4000000000  110.7700000000 # cp         c2        c3       hpan
dihedral_coeff  2    at       -0.8085000000    0.5569000000   -0.2466000000   -0.8085000000    0.5569000000   -0.2466000000  110.7700000000  110.7700000000 # hpan       c2        c3       hpan
dihedral_coeff  3    at        0.0000000000    0.0000000000    0.0000000000    0.0000000000    0.0000000000    0.0000000000  108.4000000000  120.0500000000 # c3         c2        cp         cp
dihedral_coeff  4    at        4.6266000000    0.1632000000    0.0461000000    0.2251000000    0.6548000000    0.1237000000  111.0000000000  120.0500000000 # hpan       c2        cp         cp
dihedral_coeff  5    at        4.6266000000    0.1632000000    0.0461000000    0.2251000000    0.6548000000    0.1237000000  111.0000000000  120.0500000000 # hpan       c3        cp         cp
dihedral_coeff  6    at        0.0000000000   -4.4683000000    0.0000000000    0.0000000000    3.8987000000    0.0000000000  120.0500000000  118.9000000000 # c3         cp        cp         cp
dihedral_coeff  7    at        0.0000000000   -4.4683000000    0.0000000000    0.0000000000    3.8987000000    0.0000000000  120.0500000000  118.9000000000 # c2         cp        cp         cp
dihedral_coeff  8    at        1.9767000000    1.0239000000    0.0000000000    1.9767000000    1.0239000000    0.0000000000  118.9000000000  118.9000000000 # cp         cp        cp         cp
dihedral_coeff  9    at        0.0000000000   -0.1242000000    0.0000000000    0.0000000000    3.4601000000    0.0000000000  120.0500000000  117.9400000000 # c2         cp        cp       hpan
dihedral_coeff  10   at        0.0000000000    2.5014000000    0.0000000000    0.0000000000    2.7147000000    0.0000000000  118.9000000000  117.9400000000 # cp         cp        cp       hpan
dihedral_coeff  11   at        0.0000000000    0.0000000000    0.0000000000    0.0000000000    0.0000000000    0.0000000000  120.0500000000  121.4584000000 # c3         cp        cp         nn
dihedral_coeff  12   at        0.0000000000    0.0000000000    0.0000000000    0.0000000000    0.0000000000    0.0000000000  120.0500000000  121.4584000000 # c2         cp        cp         nn
dihedral_coeff  13   at        0.0000000000    9.0901000000    0.0000000000    0.0000000000   -6.0882000000    0.0000000000  118.9000000000  121.4584000000 # cp         cp        cp         nn
dihedral_coeff  14   at        0.0000000000    0.0000000000    0.0000000000    0.0000000000    0.0000000000    0.0000000000  121.4584000000  122.0000000000 # cp         cp        nn        hn2


#--------------------------------------------------AngleAngle Coeffs--------------------------------------------------
improper_coeff  1    aa        0.0000000000    0.0000000000    0.0000000000  120.0500000000  118.9000000000  120.0500000000 # c2         cp        cp        cp      nb==3
improper_coeff  2    aa        0.0000000000    0.0000000000    0.0000000000  120.0500000000  118.9000000000  120.0500000000 # c3         cp        cp        cp      nb==3
improper_coeff  3    aa        0.0000000000    0.0000000000    0.0000000000  118.9000000000  117.9400000000  117.9400000000 # cp         cp        cp       hpan     nb==3
improper_coeff  4    aa        0.0000000000    0.0000000000    0.0000000000  118.9000000000  121.4584000000  121.4584000000 # cp         cp        cp        nn      nb==3
improper_coeff  5    aa        0.0000000000    0.0000000000    0.0000000000  122.0000000000  122.0000000000  122.0000000000 # cp         nn       hn2       hn2      nb==3
improper_coeff  6    aa        0.2738000000   -0.4825000000    0.2738000000  110.7700000000  110.7700000000  107.6600000000 # c2         c3       hpan      hpan     nb!=3
improper_coeff  7    aa        2.0403000000   -1.8202000000    1.0827000000  108.4000000000  110.7700000000  111.0000000000 # c3         c2        cp       hpan     nb!=3
improper_coeff  8    aa        0.2738000000   -0.4825000000    0.2738000000  110.7700000000  110.7700000000  107.6600000000 # c3         c2       hpan      hpan     nb!=3
improper_coeff  9    aa        2.3794000000    3.0118000000    2.3794000000  111.0000000000  111.0000000000  107.6600000000 # cp         c2       hpan      hpan     nb!=3
improper_coeff  10   aa        2.3794000000    3.0118000000    2.3794000000  111.0000000000  111.0000000000  107.6600000000 # cp         c3       hpan      hpan     nb!=3
improper_coeff  11   aa       -0.3157000000   -0.3157000000   -0.3157000000  107.6600000000  107.6600000000  107.6600000000 # hpan       c3       hpan      hpan     nb!=3
