# HEADER,  detda.mol  read w/ mol2lmp > atom_typing v1.7 / 4 November 2023 w/PCFF-IFF atom-types > all2lmp: v1.14 / 18 December 2023  Class: 2 > bond_react_merge: v1.17 / 14 April 2025 datafile (filetag: data1)



--------------------------------------------------Force Field--------------------------------------------------
bond_style           class2
angle_style          class2
dihedral_style       class2
improper_style       class2
special_bonds        lj/coul 0 0 1 # PLEASE CHECK I AM CORRECT

pair_style           lj/class2/coul/long 12.0
kspace_style         pppm 1.0e-4
pair_modify          mix sixthpower

neighbor             2.0 bin
neigh_modify         delay 0 every 1 check yes one 5000 page 100000


--------------------------------------------------Pair Coeffs--------------------------------------------------
pair_coeff     1           0.0540000000    4.0100000000 # c1
pair_coeff     2           0.0540000000    4.0100000000 # c2
pair_coeff     3           0.0540000000    3.9000000000 # c3
pair_coeff     4           0.0540000000    4.0100000000 # c3h
pair_coeff     5           0.0640000000    4.0100000000 # cp
pair_coeff     6           0.0200000000    2.9950000000 # hc
pair_coeff     7           0.0130000000    1.0980000000 # hn
pair_coeff     8           0.0130000000    1.1100000000 # ho2
pair_coeff     9           0.0650000000    4.0700000000 # nn
pair_coeff     10          0.2400000000    3.5350000000 # o3e
pair_coeff     11          0.2400000000    3.5350000000 # oc
pair_coeff     12          0.2400000000    3.5350000000 # oh


--------------------------------------------------Bond Coeffs--------------------------------------------------
bond_coeff     1           1.5300000000  299.6700000000 -501.7700000000  679.8100000000 # c1        c2
bond_coeff     2           1.1010000000  345.0000000000 -691.8900000000  844.6000000000 # c1        hc
bond_coeff     3           1.4200000000  400.3954000000 -835.1951000000 1313.0142000000 # c1        oh
bond_coeff     4           1.5300000000  299.6700000000 -501.7700000000  679.8100000000 # c2        c3
bond_coeff     5           1.5300000000  299.6700000000 -501.7700000000  679.8100000000 # c2       c3h
bond_coeff     6           1.5010000000  321.9021000000 -521.8208000000  572.1628000000 # c2        cp
bond_coeff     7           1.1010000000  345.0000000000 -691.8900000000  844.6000000000 # c2        hc
bond_coeff     8           1.4700000000  356.5988000000    0.0000000000    0.0000000000 # c2        nn
bond_coeff     9           1.4200000000  400.3954000000 -835.1951000000 1313.0142000000 # c2        oc
bond_coeff     10          1.5010000000  321.9021000000 -521.8208000000  572.1628000000 # c3        cp
bond_coeff     11          1.1010000000  345.0000000000 -691.8900000000  844.6000000000 # c3        hc
bond_coeff     12          1.5300000000  299.6700000000 -501.7700000000  679.8100000000 # c3h      c3h
bond_coeff     13          1.1010000000  345.0000000000 -691.8900000000  844.6000000000 # c3h       hc
bond_coeff     14          1.4200000000  400.3954000000 -835.1951000000 1313.0142000000 # c3h      o3e
bond_coeff     15          1.4170000000  470.8361000000 -627.6179000000 1327.6345000000 # cp        cp
bond_coeff     16          1.0982000000  372.8251000000 -803.4526000000  894.3173000000 # cp        hc
bond_coeff     17          1.3912000000  447.0438000000 -784.5346000000  886.1671000000 # cp        nn
bond_coeff     18          1.3768000000  428.8798000000 -738.2351000000 1114.9655000000 # cp        oc
bond_coeff     19          1.0012000000  465.8608000000-1066.2360000000 1496.5647000000 # hn        nn
bond_coeff     20          0.9600000000  493.8480000000    0.0000000000    0.0000000000 # ho2       oh


--------------------------------------------------Angle Coeffs--------------------------------------------------
angle_coeff     1         110.7700000000   41.4530000000  -10.6040000000    5.1290000000 # c1       c2       hc
angle_coeff     2         114.0000000000   50.0000000000    0.0000000000    0.0000000000 # c1       c2       nn
angle_coeff     3         111.2700000000   54.5381000000   -8.3642000000  -13.0838000000 # c1       c2       oc
angle_coeff     4         109.0000000000   58.5000000000    0.0000000000    0.0000000000 # c1       oh      ho2
angle_coeff     5         112.6700000000   39.5160000000   -7.4430000000   -9.5583000000 # c2       c1       c2
angle_coeff     6         110.7700000000   41.4530000000  -10.6040000000    5.1290000000 # c2       c1       hc
angle_coeff     7         111.2700000000   54.5381000000   -8.3642000000  -13.0838000000 # c2       c1       oh
angle_coeff     8         110.7700000000   41.4530000000  -10.6040000000    5.1290000000 # c2       c3       hc
angle_coeff     9         112.6700000000   39.5160000000   -7.4430000000   -9.5583000000 # c2      c3h      c3h
angle_coeff     10        110.7700000000   41.4530000000  -10.6040000000    5.1290000000 # c2      c3h       hc
angle_coeff     11        111.2700000000   54.5381000000   -8.3642000000  -13.0838000000 # c2      c3h      o3e
angle_coeff     12        120.0500000000   44.7148000000  -22.7352000000    0.0000000000 # c2       cp       cp
angle_coeff     13        120.0000000000   50.0000000000    0.0000000000    0.0000000000 # c2       nn       c2
angle_coeff     14        120.0000000000   50.0000000000    0.0000000000    0.0000000000 # c2       nn       cp
angle_coeff     15        122.0000000000   35.0000000000    0.0000000000    0.0000000000 # c2       nn       hn
angle_coeff     16        102.9695000000   38.9739000000   -6.2595000000   -8.1710000000 # c2       oc       cp
angle_coeff     17        108.4000000000   43.9594000000   -8.3924000000   -9.3379000000 # c3       c2       cp
angle_coeff     18        110.7700000000   41.4530000000  -10.6040000000    5.1290000000 # c3       c2       hc
angle_coeff     19        120.0500000000   44.7148000000  -22.7352000000    0.0000000000 # c3       cp       cp
angle_coeff     20        110.7700000000   41.4530000000  -10.6040000000    5.1290000000 # c3h      c2       hc
angle_coeff     21        111.2700000000   54.5381000000   -8.3642000000  -13.0838000000 # c3h      c2       oc
angle_coeff     22        110.7700000000   41.4530000000  -10.6040000000    5.1290000000 # c3h     c3h       hc
angle_coeff     23        111.2700000000   54.5381000000   -8.3642000000  -13.0838000000 # c3h     c3h      o3e
angle_coeff     24        104.5000000000   35.7454000000  -10.0067000000   -6.2729000000 # c3h     o3e      c3h
angle_coeff     25        111.0000000000   44.3234000000   -9.4454000000    0.0000000000 # cp       c2       cp
angle_coeff     26        111.0000000000   44.3234000000   -9.4454000000    0.0000000000 # cp       c2       hc
angle_coeff     27        111.0000000000   44.3234000000   -9.4454000000    0.0000000000 # cp       c3       hc
angle_coeff     28        118.9000000000   61.0226000000  -34.9931000000    0.0000000000 # cp       cp       cp
angle_coeff     29        117.9400000000   35.1558000000  -12.4682000000    0.0000000000 # cp       cp       hc
angle_coeff     30        121.4584000000   61.0647000000  -21.6172000000    0.0000000000 # cp       cp       nn
angle_coeff     31        123.4200000000   73.6781000000  -21.6787000000    0.0000000000 # cp       cp       oc
angle_coeff     32        111.8725000000   40.8369000000  -15.6673000000    0.0000000000 # cp       nn       hn
angle_coeff     33        108.7280000000   58.5446000000  -10.8088000000  -12.4006000000 # hc       c1       oh
angle_coeff     34        107.6600000000   39.6410000000  -12.9210000000   -2.4318000000 # hc       c2       hc
angle_coeff     35        109.5000000000   50.0000000000    0.0000000000    0.0000000000 # hc       c2       nn
angle_coeff     36        108.7280000000   58.5446000000  -10.8088000000  -12.4006000000 # hc       c2       oc
angle_coeff     37        107.6600000000   39.6410000000  -12.9210000000   -2.4318000000 # hc       c3       hc
angle_coeff     38        107.6600000000   39.6410000000  -12.9210000000   -2.4318000000 # hc      c3h       hc
angle_coeff     39        108.7280000000   58.5446000000  -10.8088000000  -12.4006000000 # hc      c3h      o3e
angle_coeff     40        107.5130000000   42.5182000000  -21.7566000000   -4.3372000000 # hn       nn       hn


--------------------------------------------------Dihedral Coeffs--------------------------------------------------
dihedral_coeff     1           0.0000000000    0.0000000000    0.0000000000    0.0000000000    0.0000000000    0.0000000000 # c1       c2      nn       c2
dihedral_coeff     2           0.0000000000    0.0000000000    0.0000000000    0.0000000000    0.0000000000    0.0000000000 # c1       c2      nn       cp
dihedral_coeff     3           0.0000000000    0.0000000000    0.0000000000    0.0000000000    0.0000000000    0.0000000000 # c1       c2      nn       hn
dihedral_coeff     4           0.0000000000    0.0000000000    0.0000000000    0.0000000000    0.1300000000    0.0000000000 # c1       c2      oc       cp
dihedral_coeff     5           0.0000000000    0.0000000000    0.0316000000    0.0000000000   -0.1681000000    0.0000000000 # c2       c1      c2       hc
dihedral_coeff     6           0.0000000000    0.0000000000    0.0000000000    0.0000000000    0.1580000000    0.0000000000 # c2       c1      c2       nn
dihedral_coeff     7           0.7137000000    0.0000000000    0.2660000000    0.0000000000   -0.2545000000    0.0000000000 # c2       c1      c2       oc
dihedral_coeff     8           0.0000000000    0.0000000000    0.0000000000    0.0000000000    0.1300000000    0.0000000000 # c2       c1      oh      ho2
dihedral_coeff     9           0.0000000000    0.0000000000    0.0316000000    0.0000000000   -0.1681000000    0.0000000000 # c2      c3h     c3h       hc
dihedral_coeff     10          0.7137000000    0.0000000000    0.2660000000    0.0000000000   -0.2545000000    0.0000000000 # c2      c3h     c3h      o3e
dihedral_coeff     11         -0.5203000000    0.0000000000   -0.3028000000    0.0000000000   -0.3450000000    0.0000000000 # c2      c3h     o3e      c3h
dihedral_coeff     12          0.0000000000    0.0000000000    4.4072000000    0.0000000000    0.0000000000    0.0000000000 # c2       cp      cp       cp
dihedral_coeff     13          0.0000000000    0.0000000000    1.5590000000    0.0000000000    0.0000000000    0.0000000000 # c2       cp      cp       hc
dihedral_coeff     14          0.0000000000    0.0000000000    3.0000000000    0.0000000000    0.0000000000    0.0000000000 # c2       cp      cp       nn
dihedral_coeff     15         -0.2802000000    0.0000000000   -0.0678000000    0.0000000000   -0.0122000000    0.0000000000 # c3       c2      cp       cp
dihedral_coeff     16          0.0000000000    0.0000000000    4.4072000000    0.0000000000    0.0000000000    0.0000000000 # c3       cp      cp       cp
dihedral_coeff     17          0.0000000000    0.0000000000    3.0000000000    0.0000000000    0.0000000000    0.0000000000 # c3       cp      cp       nn
dihedral_coeff     18          0.0000000000    0.0000000000    0.0000000000    0.0000000000    0.1300000000    0.0000000000 # c3h      c2      oc       cp
dihedral_coeff     19          0.0000000000    0.0000000000    0.0316000000    0.0000000000   -0.1681000000    0.0000000000 # c3h     c3h      c2       hc
dihedral_coeff     20          0.7137000000    0.0000000000    0.2660000000    0.0000000000   -0.2545000000    0.0000000000 # c3h     c3h      c2       oc
dihedral_coeff     21         -0.0228000000    0.0000000000    0.0280000000    0.0000000000   -0.1863000000    0.0000000000 # cp       c2      c3       hc
dihedral_coeff     22         -0.2802000000    0.0000000000   -0.0678000000    0.0000000000   -0.0122000000    0.0000000000 # cp       c2      cp       cp
dihedral_coeff     23          8.3667000000    0.0000000000    1.1932000000    0.0000000000    0.0000000000    0.0000000000 # cp       cp      cp       cp
dihedral_coeff     24          0.0000000000    0.0000000000    3.9661000000    0.0000000000    0.0000000000    0.0000000000 # cp       cp      cp       hc
dihedral_coeff     25          0.0000000000    0.0000000000    5.3826000000    0.0000000000    0.0000000000    0.0000000000 # cp       cp      cp       nn
dihedral_coeff     26          0.0000000000    0.0000000000    4.8498000000    0.0000000000    0.0000000000    0.0000000000 # cp       cp      cp       oc
dihedral_coeff     27          0.0000000000    0.0000000000    2.2500000000    0.0000000000    0.0000000000    0.0000000000 # cp       cp      nn       c2
dihedral_coeff     28          0.0000000000    0.0000000000    1.2190000000    0.0000000000    0.0000000000    0.0000000000 # cp       cp      nn       hn
dihedral_coeff     29          0.0000000000    0.0000000000    1.5000000000    0.0000000000    0.0000000000    0.0000000000 # cp       cp      oc       c2
dihedral_coeff     30         -0.1432000000    0.0000000000    0.0617000000    0.0000000000   -0.1083000000    0.0000000000 # hc       c1      c2       hc
dihedral_coeff     31          0.0000000000    0.0000000000    0.0000000000    0.0000000000    0.1580000000    0.0000000000 # hc       c1      c2       nn
dihedral_coeff     32         -0.1435000000    0.0000000000    0.2530000000    0.0000000000   -0.0905000000    0.0000000000 # hc       c1      c2       oc
dihedral_coeff     33          0.0000000000    0.0000000000    0.0000000000    0.0000000000    0.1300000000    0.0000000000 # hc       c1      oh      ho2
dihedral_coeff     34         -0.1435000000    0.0000000000    0.2530000000    0.0000000000   -0.0905000000    0.0000000000 # hc       c2      c1       oh
dihedral_coeff     35         -0.1432000000    0.0000000000    0.0617000000    0.0000000000   -0.1083000000    0.0000000000 # hc       c2      c3       hc
dihedral_coeff     36         -0.1432000000    0.0000000000    0.0617000000    0.0000000000   -0.1083000000    0.0000000000 # hc       c2     c3h       hc
dihedral_coeff     37         -0.1435000000    0.0000000000    0.2530000000    0.0000000000   -0.0905000000    0.0000000000 # hc       c2     c3h      o3e
dihedral_coeff     38         -0.2801000000    0.0000000000   -0.0678000000    0.0000000000   -0.0122000000    0.0000000000 # hc       c2      cp       cp
dihedral_coeff     39          0.0000000000    0.0000000000    0.0000000000    0.0000000000    0.0000000000    0.0000000000 # hc       c2      nn       c2
dihedral_coeff     40          0.0000000000    0.0000000000    0.0000000000    0.0000000000    0.0000000000    0.0000000000 # hc       c2      nn       cp
dihedral_coeff     41          0.0000000000    0.0000000000    0.0000000000    0.0000000000    0.0000000000    0.0000000000 # hc       c2      nn       hn
dihedral_coeff     42          0.9513000000    0.0000000000    0.1155000000    0.0000000000    0.0720000000    0.0000000000 # hc       c2      oc       cp
dihedral_coeff     43         -0.2801000000    0.0000000000   -0.0678000000    0.0000000000   -0.0122000000    0.0000000000 # hc       c3      cp       cp
dihedral_coeff     44         -0.1435000000    0.0000000000    0.2530000000    0.0000000000   -0.0905000000    0.0000000000 # hc      c3h      c2       oc
dihedral_coeff     45         -0.1432000000    0.0000000000    0.0617000000    0.0000000000   -0.1083000000    0.0000000000 # hc      c3h     c3h       hc
dihedral_coeff     46         -0.1435000000    0.0000000000    0.2530000000    0.0000000000   -0.0905000000    0.0000000000 # hc      c3h     c3h      o3e
dihedral_coeff     47          0.5302000000    0.0000000000    0.0000000000    0.0000000000   -0.3966000000    0.0000000000 # hc      c3h     o3e      c3h
dihedral_coeff     48          0.0000000000    0.0000000000    1.8769000000    0.0000000000    0.0000000000    0.0000000000 # hc       cp      cp       hc
dihedral_coeff     49          0.0000000000    0.0000000000    1.7234000000    0.0000000000    0.0000000000    0.0000000000 # hc       cp      cp       oc
dihedral_coeff     50          0.0000000000    0.0000000000    0.0000000000    0.0000000000    0.1580000000    0.0000000000 # nn       c2      c1       oh
dihedral_coeff     51         -0.1820000000    0.0000000000   -0.1084000000    0.0000000000   -0.7047000000    0.0000000000 # o3e     c3h      c2       oc
dihedral_coeff     52         -0.1820000000    0.0000000000   -0.1084000000    0.0000000000   -0.7047000000    0.0000000000 # oc       c2      c1       oh


--------------------------------------------------Improper Coeffs--------------------------------------------------
improper_coeff     1           7.8153000000    0.0000000000 # c2       cp      cp      cp    nb==3
improper_coeff     2           0.1000000000    0.0000000000 # c2       nn      c2      cp    nb==3
improper_coeff     3           0.1000000000    0.0000000000 # c2       nn      cp      hn    nb==3
improper_coeff     4           7.8153000000    0.0000000000 # c3       cp      cp      cp    nb==3
improper_coeff     5           4.8912000000    0.0000000000 # cp       cp      cp      hc    nb==3
improper_coeff     6          10.7855000000    0.0000000000 # cp       cp      cp      nn    nb==3
improper_coeff     7          13.0421000000    0.0000000000 # cp       cp      cp      oc    nb==3
improper_coeff     8           0.0000000000    0.0000000000 # cp       nn      hn      hn    nb==3
improper_coeff     9           0.0000000000    0.0000000000 # c1       c2      hc      hc    nb!=3
improper_coeff     10          0.0000000000    0.0000000000 # c1       c2      hc      nn    nb!=3
improper_coeff     11          0.0000000000    0.0000000000 # c1       c2      hc      oc    nb!=3
improper_coeff     12          0.0000000000    0.0000000000 # c2       c1      c2      hc    nb!=3
improper_coeff     13          0.0000000000    0.0000000000 # c2       c1      c2      oh    nb!=3
improper_coeff     14          0.0000000000    0.0000000000 # c2       c1      hc      oh    nb!=3
improper_coeff     15          0.0000000000    0.0000000000 # c2       c3      hc      hc    nb!=3
improper_coeff     16          0.0000000000    0.0000000000 # c2      c3h     c3h      hc    nb!=3
improper_coeff     17          0.0000000000    0.0000000000 # c2      c3h     c3h     o3e    nb!=3
improper_coeff     18          0.0000000000    0.0000000000 # c2      c3h      hc     o3e    nb!=3
improper_coeff     19          0.0000000000    0.0000000000 # c3       c2      cp      hc    nb!=3
improper_coeff     20          0.0000000000    0.0000000000 # c3       c2      hc      hc    nb!=3
improper_coeff     21          0.0000000000    0.0000000000 # c3h      c2      hc      hc    nb!=3
improper_coeff     22          0.0000000000    0.0000000000 # c3h      c2      hc      oc    nb!=3
improper_coeff     23          0.0000000000    0.0000000000 # c3h     c3h      hc      hc    nb!=3
improper_coeff     24          0.0000000000    0.0000000000 # c3h     c3h      hc     o3e    nb!=3
improper_coeff     25          0.0000000000    0.0000000000 # cp       c2      cp      hc    nb!=3
improper_coeff     26          0.0000000000    0.0000000000 # cp       c2      hc      hc    nb!=3
improper_coeff     27          0.0000000000    0.0000000000 # cp       c3      hc      hc    nb!=3
improper_coeff     28          0.0000000000    0.0000000000 # hc       c2      hc      nn    nb!=3
improper_coeff     29          0.0000000000    0.0000000000 # hc       c2      hc      oc    nb!=3
improper_coeff     30          0.0000000000    0.0000000000 # hc       c3      hc      hc    nb!=3
improper_coeff     31          0.0000000000    0.0000000000 # hc      c3h      hc     o3e    nb!=3


--------------------------------------------------BondBond Coeffs--------------------------------------------------
angle_coeff   bb       1           3.3872000000    1.5300000000    1.1010000000 # c1       c2       hc
angle_coeff   bb       2           0.0000000000    1.5300000000    1.4700000000 # c1       c2       nn
angle_coeff   bb       3          11.4318000000    1.5300000000    1.4200000000 # c1       c2       oc
angle_coeff   bb       4           0.0000000000    1.4200000000    0.9600000000 # c1       oh      ho2
angle_coeff   bb       5           0.0000000000    1.5300000000    1.5300000000 # c2       c1       c2
angle_coeff   bb       6           3.3872000000    1.5300000000    1.1010000000 # c2       c1       hc
angle_coeff   bb       7          11.4318000000    1.5300000000    1.4200000000 # c2       c1       oh
angle_coeff   bb       8           3.3872000000    1.5300000000    1.1010000000 # c2       c3       hc
angle_coeff   bb       9           0.0000000000    1.5300000000    1.5300000000 # c2      c3h      c3h
angle_coeff   bb       10          3.3872000000    1.5300000000    1.1010000000 # c2      c3h       hc
angle_coeff   bb       11         11.4318000000    1.5300000000    1.4200000000 # c2      c3h      o3e
angle_coeff   bb       12         12.0676000000    1.5010000000    1.4170000000 # c2       cp       cp
angle_coeff   bb       13          0.0000000000    1.4700000000    1.4700000000 # c2       nn       c2
angle_coeff   bb       14          0.0000000000    1.4700000000    1.3912000000 # c2       nn       cp
angle_coeff   bb       15          0.0000000000    1.4700000000    1.0012000000 # c2       nn       hn
angle_coeff   bb       16          0.0000000000    1.4200000000    1.3768000000 # c2       oc       cp
angle_coeff   bb       17          0.0000000000    1.5300000000    1.5010000000 # c3       c2       cp
angle_coeff   bb       18          3.3872000000    1.5300000000    1.1010000000 # c3       c2       hc
angle_coeff   bb       19         12.0676000000    1.5010000000    1.4170000000 # c3       cp       cp
angle_coeff   bb       20          3.3872000000    1.5300000000    1.1010000000 # c3h      c2       hc
angle_coeff   bb       21         11.4318000000    1.5300000000    1.4200000000 # c3h      c2       oc
angle_coeff   bb       22          3.3872000000    1.5300000000    1.1010000000 # c3h     c3h       hc
angle_coeff   bb       23         11.4318000000    1.5300000000    1.4200000000 # c3h     c3h      o3e
angle_coeff   bb       24         -7.1131000000    1.4200000000    1.4200000000 # c3h     o3e      c3h
angle_coeff   bb       25          0.0000000000    1.5010000000    1.5010000000 # cp       c2       cp
angle_coeff   bb       26          2.9168000000    1.5010000000    1.1010000000 # cp       c2       hc
angle_coeff   bb       27          2.9168000000    1.5010000000    1.1010000000 # cp       c3       hc
angle_coeff   bb       28         68.2856000000    1.4170000000    1.4170000000 # cp       cp       cp
angle_coeff   bb       29          1.0795000000    1.4170000000    1.0982000000 # cp       cp       hc
angle_coeff   bb       30         46.9513000000    1.4170000000    1.3912000000 # cp       cp       nn
angle_coeff   bb       31         48.4754000000    1.4170000000    1.3768000000 # cp       cp       oc
angle_coeff   bb       32          4.5393000000    1.3912000000    1.0012000000 # cp       nn       hn
angle_coeff   bb       33         23.1979000000    1.1010000000    1.4200000000 # hc       c1       oh
angle_coeff   bb       34          5.3316000000    1.1010000000    1.1010000000 # hc       c2       hc
angle_coeff   bb       35          0.0000000000    1.1010000000    1.4700000000 # hc       c2       nn
angle_coeff   bb       36         23.1979000000    1.1010000000    1.4200000000 # hc       c2       oc
angle_coeff   bb       37          5.3316000000    1.1010000000    1.1010000000 # hc       c3       hc
angle_coeff   bb       38          5.3316000000    1.1010000000    1.1010000000 # hc      c3h       hc
angle_coeff   bb       39         23.1979000000    1.1010000000    1.4200000000 # hc      c3h      o3e
angle_coeff   bb       40         -9.9447000000    1.0012000000    1.0012000000 # hn       nn       hn


--------------------------------------------------BondAngle Coeffs--------------------------------------------------
angle_coeff   ba       1          20.7540000000   11.4210000000    1.5300000000    1.1010000000 # c1       c2       hc
angle_coeff   ba       2           0.0000000000    0.0000000000    1.5300000000    1.4700000000 # c1       c2       nn
angle_coeff   ba       3           2.6868000000   20.4033000000    1.5300000000    1.4200000000 # c1       c2       oc
angle_coeff   ba       4           0.0000000000    0.0000000000    1.4200000000    0.9600000000 # c1       oh      ho2
angle_coeff   ba       5           8.0160000000    8.0160000000    1.5300000000    1.5300000000 # c2       c1       c2
angle_coeff   ba       6          20.7540000000   11.4210000000    1.5300000000    1.1010000000 # c2       c1       hc
angle_coeff   ba       7           2.6868000000   20.4033000000    1.5300000000    1.4200000000 # c2       c1       oh
angle_coeff   ba       8          20.7540000000   11.4210000000    1.5300000000    1.1010000000 # c2       c3       hc
angle_coeff   ba       9           8.0160000000    8.0160000000    1.5300000000    1.5300000000 # c2      c3h      c3h
angle_coeff   ba       10         20.7540000000   11.4210000000    1.5300000000    1.1010000000 # c2      c3h       hc
angle_coeff   ba       11          2.6868000000   20.4033000000    1.5300000000    1.4200000000 # c2      c3h      o3e
angle_coeff   ba       12         47.0579000000   31.0771000000    1.5010000000    1.4170000000 # c2       cp       cp
angle_coeff   ba       13          0.0000000000    0.0000000000    1.4700000000    1.4700000000 # c2       nn       c2
angle_coeff   ba       14          0.0000000000    0.0000000000    1.4700000000    1.3912000000 # c2       nn       cp
angle_coeff   ba       15          0.0000000000    0.0000000000    1.4700000000    1.0012000000 # c2       nn       hn
angle_coeff   ba       16          0.0000000000    0.0000000000    1.4200000000    1.3768000000 # c2       oc       cp
angle_coeff   ba       17          0.0000000000    0.0000000000    1.5300000000    1.5010000000 # c3       c2       cp
angle_coeff   ba       18         20.7540000000   11.4210000000    1.5300000000    1.1010000000 # c3       c2       hc
angle_coeff   ba       19         47.0579000000   31.0771000000    1.5010000000    1.4170000000 # c3       cp       cp
angle_coeff   ba       20         20.7540000000   11.4210000000    1.5300000000    1.1010000000 # c3h      c2       hc
angle_coeff   ba       21          2.6868000000   20.4033000000    1.5300000000    1.4200000000 # c3h      c2       oc
angle_coeff   ba       22         20.7540000000   11.4210000000    1.5300000000    1.1010000000 # c3h     c3h       hc
angle_coeff   ba       23          2.6868000000   20.4033000000    1.5300000000    1.4200000000 # c3h     c3h      o3e
angle_coeff   ba       24         -2.8112000000   -2.8112000000    1.4200000000    1.4200000000 # c3h     o3e      c3h
angle_coeff   ba       25          0.0000000000    0.0000000000    1.5010000000    1.5010000000 # cp       c2       cp
angle_coeff   ba       26         26.4608000000   11.7717000000    1.5010000000    1.1010000000 # cp       c2       hc
angle_coeff   ba       27         26.4608000000   11.7717000000    1.5010000000    1.1010000000 # cp       c3       hc
angle_coeff   ba       28         28.8708000000   28.8708000000    1.4170000000    1.4170000000 # cp       cp       cp
angle_coeff   ba       29         20.0033000000   24.2183000000    1.4170000000    1.0982000000 # cp       cp       hc
angle_coeff   ba       30         39.4040000000   73.6548000000    1.4170000000    1.3912000000 # cp       cp       nn
angle_coeff   ba       31         58.4790000000  107.6806000000    1.4170000000    1.3768000000 # cp       cp       oc
angle_coeff   ba       32         38.5704000000   16.5524000000    1.3912000000    1.0012000000 # cp       nn       hn
angle_coeff   ba       33          4.6189000000   55.3270000000    1.1010000000    1.4200000000 # hc       c1       oh
angle_coeff   ba       34         18.1030000000   18.1030000000    1.1010000000    1.1010000000 # hc       c2       hc
angle_coeff   ba       35          0.0000000000    0.0000000000    1.1010000000    1.4700000000 # hc       c2       nn
angle_coeff   ba       36          4.6189000000   55.3270000000    1.1010000000    1.4200000000 # hc       c2       oc
angle_coeff   ba       37         18.1030000000   18.1030000000    1.1010000000    1.1010000000 # hc       c3       hc
angle_coeff   ba       38         18.1030000000   18.1030000000    1.1010000000    1.1010000000 # hc      c3h       hc
angle_coeff   ba       39          4.6189000000   55.3270000000    1.1010000000    1.4200000000 # hc      c3h      o3e
angle_coeff   ba       40         17.1597000000   17.1597000000    1.0012000000    1.0012000000 # hn       nn       hn
